certificates/rado_a7_c164_N24.cnf
c Rad2 upper bound instance: x1 + 7*x2 - x3 = 164, interval [1,24]
p cnf 24 124
1 5 24 0
-1 -5 -24 0
2 6 24 0
-2 -6 -24 0
3 7 24 0
-3 -7 -24 0
1 4 23 0
-1 -4 -23 0
4 8 24 0
-4 -8 -24 0
2 5 23 0
-2 -5 -23 0
5 9 24 0
-5 -9 -24 0
3 6 23 0
-3 -6 -23 0
6 10 24 0
-6 -10 -24 0
4 7 23 0
-4 -7 -23 0
7 11 24 0
-7 -11 -24 0
5 8 23 0
-5 -8 -23 0
8 12 24 0
-8 -12 -24 0
6 9 23 0
-6 -9 -23 0
9 13 24 0
-9 -13 -24 0
7 10 23 0
-7 -10 -23 0
10 14 24 0
-10 -14 -24 0
1 11 22 0
-1 -11 -22 0
8 11 23 0
-8 -11 -23 0
11 15 24 0
-11 -15 -24 0
2 12 22 0
-2 -12 -22 0
9 12 23 0
-9 -12 -23 0
12 16 24 0
-12 -16 -24 0
3 13 22 0
-3 -13 -22 0
10 13 23 0
-10 -13 -23 0
13 17 24 0
-13 -17 -24 0
4 14 22 0
-4 -14 -22 0
11 14 23 0
-11 -14 -23 0
14 18 24 0
-14 -18 -24 0
5 15 22 0
-5 -15 -22 0
12 15 23 0
-12 -15 -23 0
15 19 24 0
-15 -19 -24 0
6 16 22 0
-6 -16 -22 0
13 16 23 0
-13 -16 -23 0
16 20 24 0
-16 -20 -24 0
7 17 22 0
-7 -17 -22 0
14 17 23 0
-14 -17 -23 0
17 21 24 0
-17 -21 -24 0
1 18 21 0
-1 -18 -21 0
8 18 22 0
-8 -18 -22 0
15 18 23 0
-15 -18 -23 0
18 22 24 0
-18 -22 -24 0
2 19 21 0
-2 -19 -21 0
9 19 22 0
-9 -19 -22 0
16 19 23 0
-16 -19 -23 0
19 23 24 0
-19 -23 -24 0
3 20 21 0
-3 -20 -21 0
10 20 22 0
-10 -20 -22 0
17 20 23 0
-17 -20 -23 0
20 24 0
-20 -24 0
4 21 0
-4 -21 0
11 21 22 0
-11 -21 -22 0
18 21 23 0
-18 -21 -23 0
5 21 22 0
-5 -21 -22 0
12 22 0
-12 -22 0
19 22 23 0
-19 -22 -23 0
6 21 23 0
-6 -21 -23 0
13 22 23 0
-13 -22 -23 0
20 23 0
-20 -23 0
7 21 24 0
-7 -21 -24 0
14 22 24 0
-14 -22 -24 0
21 23 24 0
-21 -23 -24 0
