certificates/rado_a7_c164_N24.drat
-23 -24 0
d -19 -23 -24 0
-24 0
20 0
-23 0
19 0
21 0
-4 0
-2 0
-3 0
1 0
7 0
8 0
6 0
5 0
-18 0
-22 0
14 0
15 0
0
